50
    1    45    45
    2    99    99
    3    93    93
    4    96    96
    5    67    67
    6    29    29
    7   100   100
    8    65    65
    9    41    41
   10    23    23
   11    91    91
   12     2     2
   13    70    70
   14    99    99
   15    81    81
   16     1     1
   17    46    46
   18    96    96
   19    59    59
   20     4     4
   21    57    57
   22     4     4
   23   100   100
   24    20    20
   25    93    93
   26     8     8
   27    61    61
   28    27    27
   29     6     6
   30    48    48
   31    54    54
   32    17    17
   33    10    10
   34    11    11
   35    25    25
   36    15    15
   37    58    58
   38    20    20
   39     7     7
   40    79    79
   41    14    14
   42    91    91
   43    13    13
   44     4     4
   45     1     1
   46     1     1
   47    96    96
   48    93    93
   49    50    50
   50    46    46
1557
